09-routing/solutions/XSH-n20-k4-42.opt.sol
Route #1: 2 8 13 12
Route #2: 10 17 7 20 4 14 15 5
Route #3: 18 9 6 16
Route #4: 3 1 19 11
Cost 998
